p cnf 482 1419
a 10 12 14 16 0
d 1 10 0
d 3 12 0
d 5 14 0
d 8 16 0
d 2 10 0
d 4 10 12 0
d 6 14 0
d 7 10 12 14 0
d 9 10 12 14 16 0
d 11 10 12 14 16 0
d 13 10 12 14 16 0
d 15 10 12 14 16 0
d 17 10 12 14 16 0
d 18 12 0
d 19 10 12 0
d 20 10 12 14 0
d 21 10 12 14 16 0
d 22 10 12 14 16 0
d 23 10 12 14 16 0
d 24 10 12 14 16 0
d 25 10 12 14 16 0
d 26 10 12 14 16 0
d 27 10 12 0
d 28 10 12 14 0
d 29 16 0
d 30 10 12 14 16 0
d 31 10 12 14 16 0
d 32 10 12 14 16 0
d 33 10 12 14 16 0
d 34 10 12 14 16 0
d 35 10 12 14 16 0
d 36 10 12 14 16 0
d 37 10 12 14 16 0
d 38 10 12 14 16 0
d 39 10 12 14 16 0
d 40 10 12 14 16 0
d 41 10 12 14 16 0
d 42 10 12 14 16 0
d 43 10 12 14 16 0
d 44 10 12 14 16 0
d 45 10 12 14 16 0
d 46 10 12 14 16 0
d 47 10 12 14 16 0
d 48 10 12 14 0
d 49 10 12 14 16 0
d 50 10 0
d 51 10 12 14 16 0
d 52 10 12 14 16 0
d 53 10 12 14 16 0
d 54 10 12 14 16 0
d 55 10 12 14 16 0
d 56 10 12 14 16 0
d 57 10 12 14 16 0
d 58 10 12 14 16 0
d 59 10 12 14 16 0
d 60 10 12 14 16 0
d 61 10 12 14 16 0
d 62 10 12 14 16 0
d 63 10 12 14 16 0
d 64 10 12 14 16 0
d 65 10 12 14 16 0
d 66 10 12 14 0
d 67 10 12 14 16 0
d 68 10 12 14 16 0
d 69 10 12 14 16 0
d 70 10 12 14 16 0
d 71 10 12 14 16 0
d 72 10 12 14 16 0
d 73 10 12 0
d 74 10 12 14 0
d 75 10 12 14 16 0
d 76 10 12 14 16 0
d 77 10 12 14 16 0
d 78 10 12 14 16 0
d 79 10 12 14 16 0
d 80 10 12 14 16 0
d 81 10 12 14 0
d 82 10 12 14 16 0
d 83 10 12 14 16 0
d 84 12 0
d 85 10 12 14 16 0
d 86 10 12 14 16 0
d 87 10 12 14 16 0
d 88 10 12 14 16 0
d 89 10 12 14 16 0
d 90 10 12 14 16 0
d 91 10 12 14 16 0
d 92 10 12 14 16 0
d 93 10 12 14 16 0
d 94 10 12 14 16 0
d 95 10 12 14 16 0
d 96 10 12 14 16 0
d 97 10 12 14 16 0
d 98 10 12 14 16 0
d 99 10 12 14 16 0
d 100 10 12 14 16 0
d 101 10 12 14 16 0
d 102 10 12 14 16 0
d 103 10 12 14 16 0
d 104 10 12 14 16 0
d 105 10 12 14 16 0
d 106 10 12 14 16 0
d 107 10 12 14 16 0
d 108 10 12 14 16 0
d 109 10 12 14 16 0
d 110 10 12 14 16 0
d 111 10 12 14 16 0
d 112 10 12 14 16 0
d 113 10 12 14 16 0
d 114 10 12 14 16 0
d 115 10 12 14 16 0
d 116 10 12 14 16 0
d 117 10 12 14 16 0
d 118 10 12 14 16 0
d 119 10 12 14 16 0
d 120 10 12 14 0
d 121 10 12 14 16 0
d 122 10 12 14 16 0
d 123 10 12 14 16 0
d 124 10 12 14 16 0
d 125 10 12 14 16 0
d 126 10 12 14 16 0
d 127 10 12 14 16 0
d 128 10 12 14 16 0
d 129 10 12 14 16 0
d 130 10 12 14 16 0
d 131 10 12 14 16 0
d 132 10 12 14 16 0
d 133 10 12 14 16 0
d 134 10 12 14 16 0
d 135 10 12 14 16 0
d 136 10 12 14 16 0
d 137 10 12 14 16 0
d 138 10 12 14 16 0
d 139 10 12 14 16 0
d 140 10 12 14 16 0
d 141 10 12 14 16 0
d 142 10 12 14 16 0
d 143 10 12 14 16 0
d 144 10 12 14 16 0
d 145 10 12 14 16 0
d 146 10 12 14 16 0
d 147 10 12 14 16 0
d 148 10 12 14 16 0
d 149 10 12 14 16 0
d 150 10 12 14 16 0
d 151 10 12 14 16 0
d 152 10 12 14 16 0
d 153 10 12 14 16 0
d 154 10 12 14 16 0
d 155 10 12 14 16 0
d 156 10 12 14 16 0
d 157 10 12 14 16 0
d 158 10 12 14 16 0
d 159 10 12 14 16 0
d 160 10 12 14 16 0
d 161 10 12 14 16 0
d 162 10 12 14 16 0
d 163 10 12 14 16 0
d 164 10 12 14 16 0
d 165 10 12 14 16 0
d 166 10 12 14 16 0
d 167 10 12 14 16 0
d 168 10 12 14 16 0
d 169 10 12 14 16 0
d 170 10 12 14 16 0
d 171 10 12 14 16 0
d 172 14 0
d 173 10 12 14 16 0
d 174 10 12 14 16 0
d 175 10 12 14 16 0
d 176 10 12 14 16 0
d 177 10 12 14 16 0
d 178 10 12 14 16 0
d 179 10 12 14 16 0
d 180 10 12 14 16 0
d 181 10 12 14 16 0
d 182 10 12 14 16 0
d 183 10 12 14 16 0
d 184 10 12 14 16 0
d 185 10 12 14 16 0
d 186 10 12 14 16 0
d 187 10 12 14 16 0
d 188 10 12 14 16 0
d 189 10 12 14 16 0
d 190 10 12 14 16 0
d 191 10 12 14 16 0
d 192 10 12 14 16 0
d 193 10 12 14 16 0
d 194 10 12 14 16 0
d 195 10 12 14 16 0
d 196 10 12 14 16 0
d 197 10 12 14 16 0
d 198 10 12 14 16 0
d 199 10 12 14 16 0
d 200 10 12 14 16 0
d 201 10 12 14 16 0
d 202 10 12 14 16 0
d 203 10 12 14 16 0
d 204 10 12 14 16 0
d 205 10 12 14 16 0
d 206 10 12 14 16 0
d 207 10 12 14 16 0
d 208 10 12 14 16 0
d 209 10 12 14 16 0
d 210 10 12 14 16 0
d 211 10 12 14 16 0
d 212 10 12 14 16 0
d 213 10 12 14 16 0
d 214 10 12 14 16 0
d 215 10 12 14 16 0
d 216 10 12 14 16 0
d 217 10 12 14 16 0
d 218 10 12 14 16 0
d 219 10 12 14 16 0
d 220 10 12 14 16 0
d 221 10 12 14 16 0
d 222 10 12 14 16 0
d 223 10 12 14 16 0
d 224 10 12 14 16 0
d 225 10 12 14 16 0
d 226 10 12 14 16 0
d 227 10 12 14 16 0
d 228 10 12 14 16 0
d 229 10 12 14 16 0
d 230 10 12 14 16 0
d 231 10 12 14 16 0
d 232 10 12 14 16 0
d 233 10 12 14 16 0
d 234 10 12 14 16 0
d 235 10 12 14 16 0
d 236 10 12 14 16 0
d 237 10 12 14 16 0
d 238 10 12 14 16 0
d 239 10 12 14 16 0
d 240 10 12 14 16 0
d 241 10 12 14 16 0
d 242 10 12 14 16 0
d 243 10 12 14 16 0
d 244 10 12 14 16 0
d 245 10 12 14 16 0
d 246 10 12 14 16 0
d 247 10 12 14 16 0
d 248 10 12 14 16 0
d 249 10 12 14 16 0
d 250 10 12 14 16 0
d 251 10 12 14 16 0
d 252 10 12 14 16 0
d 253 10 12 14 16 0
d 254 10 12 14 16 0
d 255 10 12 14 16 0
d 256 10 12 14 16 0
d 257 10 12 14 16 0
d 258 10 12 14 16 0
d 259 10 12 14 16 0
d 260 10 12 14 16 0
d 261 10 12 14 16 0
d 262 10 12 14 16 0
d 263 10 12 14 16 0
d 264 10 12 14 16 0
d 265 10 12 14 16 0
d 266 10 12 14 16 0
d 267 10 12 14 16 0
d 268 10 12 14 16 0
d 269 10 12 14 16 0
d 270 10 12 14 16 0
d 271 10 12 14 16 0
d 272 10 12 14 16 0
d 273 10 12 14 16 0
d 274 10 12 14 16 0
d 275 10 12 14 16 0
d 276 10 12 14 16 0
d 277 10 12 14 16 0
d 278 10 12 14 16 0
d 279 10 12 14 16 0
d 280 10 12 14 16 0
d 281 10 12 14 16 0
d 282 10 12 14 16 0
d 283 10 12 14 16 0
d 284 10 12 14 16 0
d 285 10 12 14 16 0
d 286 10 12 14 16 0
d 287 10 12 14 16 0
d 288 10 12 14 16 0
d 289 10 12 14 16 0
d 290 10 12 14 16 0
d 291 10 12 14 16 0
d 292 10 12 14 16 0
d 293 10 12 14 16 0
d 294 16 0
d 295 10 12 14 16 0
d 296 10 12 14 16 0
d 297 10 12 14 16 0
d 298 10 12 14 16 0
d 299 10 12 14 16 0
d 300 10 12 14 16 0
d 301 10 12 14 16 0
d 302 10 12 14 16 0
d 303 10 12 14 16 0
d 304 10 12 14 16 0
d 305 10 12 14 16 0
d 306 10 12 14 16 0
d 307 10 12 14 16 0
d 308 10 12 14 16 0
d 309 10 12 14 16 0
d 310 10 12 14 16 0
d 311 10 12 14 16 0
d 312 10 12 14 16 0
d 313 10 12 14 16 0
d 314 10 12 14 16 0
d 315 10 12 14 16 0
d 316 10 12 14 16 0
d 317 10 12 14 16 0
d 318 10 12 14 16 0
d 319 10 12 14 16 0
d 320 10 12 14 16 0
d 321 10 12 14 16 0
d 322 10 12 14 16 0
d 323 10 12 14 16 0
d 324 10 12 14 16 0
d 325 10 12 14 16 0
d 326 10 12 14 16 0
d 327 10 12 14 16 0
d 328 10 12 14 16 0
d 329 10 12 14 16 0
d 330 10 12 14 16 0
d 331 10 12 14 16 0
d 332 10 12 14 16 0
d 333 10 12 14 16 0
d 334 10 12 14 16 0
d 335 10 12 14 16 0
d 336 10 12 14 16 0
d 337 10 12 14 16 0
d 338 10 12 14 16 0
d 339 10 12 14 16 0
d 340 10 12 14 16 0
d 341 10 12 14 16 0
d 342 10 12 14 16 0
d 343 10 12 14 16 0
d 344 10 12 14 16 0
d 345 10 12 14 16 0
d 346 10 12 14 16 0
d 347 10 12 14 16 0
d 348 10 12 14 16 0
d 349 10 12 14 16 0
d 350 10 12 14 16 0
d 351 10 12 14 16 0
d 352 10 12 14 16 0
d 353 10 12 14 16 0
d 354 10 12 14 16 0
d 355 10 12 14 16 0
d 356 10 12 14 16 0
d 357 10 12 14 16 0
d 358 10 12 14 16 0
d 359 10 12 14 16 0
d 360 10 12 14 16 0
d 361 10 12 14 16 0
d 362 10 12 14 16 0
d 363 10 12 14 16 0
d 364 10 12 14 16 0
d 365 10 12 14 16 0
d 366 10 12 14 16 0
d 367 10 12 14 16 0
d 368 10 12 14 16 0
d 369 10 12 14 16 0
d 370 10 12 14 16 0
d 371 10 12 14 16 0
d 372 10 12 14 16 0
d 373 10 12 14 16 0
d 374 10 12 14 16 0
d 375 10 12 14 16 0
d 376 10 12 14 16 0
d 377 10 12 14 16 0
d 378 10 12 14 16 0
d 379 10 12 14 16 0
d 380 10 12 14 16 0
d 381 10 12 14 16 0
d 382 10 12 14 16 0
d 383 10 12 14 16 0
d 384 10 12 14 16 0
d 385 10 12 14 16 0
d 386 10 12 14 16 0
d 387 10 12 14 16 0
d 388 10 12 14 16 0
d 389 10 12 14 16 0
d 390 10 12 14 16 0
d 391 10 12 14 16 0
d 392 10 12 14 16 0
d 393 10 12 14 16 0
d 394 10 12 14 16 0
d 395 10 12 14 16 0
d 396 10 12 14 16 0
d 397 10 12 14 16 0
d 398 10 12 14 16 0
d 399 10 12 14 16 0
d 400 10 12 14 16 0
d 401 10 12 14 16 0
d 402 10 12 14 16 0
d 403 10 12 14 16 0
d 404 10 12 14 16 0
d 405 10 12 14 16 0
d 406 10 12 14 16 0
d 407 10 12 14 16 0
d 408 10 12 14 16 0
d 409 10 12 14 16 0
d 410 10 12 14 16 0
d 411 10 12 14 16 0
d 412 10 12 14 16 0
d 413 10 12 14 16 0
d 414 10 12 14 16 0
d 415 10 12 14 16 0
d 416 10 12 14 16 0
d 417 10 12 14 16 0
d 418 10 12 14 16 0
d 419 10 12 14 16 0
d 420 10 12 14 16 0
d 421 10 12 14 16 0
d 422 10 12 14 16 0
d 423 10 12 14 16 0
d 424 10 12 14 16 0
d 425 10 12 14 16 0
d 426 10 12 14 16 0
d 427 10 12 14 16 0
d 428 10 12 14 16 0
d 429 10 12 14 16 0
d 430 10 12 14 16 0
d 431 10 12 14 16 0
d 432 10 12 14 16 0
d 433 10 12 14 16 0
d 434 10 12 14 16 0
d 435 10 12 14 16 0
d 436 10 12 14 16 0
d 437 10 12 14 16 0
d 438 10 12 14 16 0
d 439 10 12 14 16 0
d 440 10 12 14 16 0
d 441 10 12 14 16 0
d 442 10 12 14 16 0
d 443 10 12 14 16 0
d 444 10 12 14 16 0
d 445 10 12 14 16 0
d 446 10 12 14 16 0
d 447 10 12 14 16 0
d 448 10 12 14 16 0
d 449 10 12 14 16 0
d 450 10 12 14 16 0
d 451 10 12 14 16 0
d 452 10 12 14 16 0
d 453 10 12 14 16 0
d 454 10 12 14 16 0
d 455 10 12 14 16 0
d 456 10 12 14 16 0
d 457 10 12 14 16 0
d 458 10 12 14 16 0
d 459 10 12 14 16 0
d 460 10 12 14 16 0
d 461 10 12 14 16 0
d 462 10 12 14 16 0
d 463 10 12 14 16 0
d 464 10 12 14 16 0
d 465 10 12 14 16 0
d 466 10 12 14 16 0
d 467 10 12 14 16 0
d 468 10 12 14 16 0
d 469 10 12 14 16 0
d 470 10 12 14 16 0
d 471 10 12 14 16 0
d 472 10 12 14 16 0
d 473 10 12 14 16 0
d 474 10 12 14 16 0
d 475 10 12 14 16 0
d 476 10 12 14 16 0
d 477 10 12 14 16 0
d 478 10 12 14 16 0
d 479 10 12 0
d 480 10 12 14 0
d 481 10 12 14 16 0
d 482 10 12 14 16 0
2 1 0
-2 -1 0
-4 2 0
-4 3 0
4 -2 -3 0
6 5 0
-6 -5 0
-7 4 0
-7 6 0
7 -4 -6 0
-9 7 0
-9 8 0
9 -7 -8 0
-11 9 0
-11 10 0
11 -9 -10 0
-13 11 0
-13 12 0
13 -11 -12 0
-15 13 0
-15 14 0
15 -13 -14 0
-17 15 0
-17 16 0
17 -15 -16 0
18 3 0
-18 -3 0
-19 1 0
-19 18 0
19 -1 -18 0
-20 19 0
-20 6 0
20 -19 -6 0
-21 20 0
-21 8 0
21 -20 -8 0
-22 21 0
-22 10 0
22 -21 -10 0
-23 22 0
-23 12 0
23 -22 -12 0
-24 23 0
-24 14 0
24 -23 -14 0
-25 24 0
-25 16 0
25 -24 -16 0
26 -17 0
26 -25 0
-26 17 25 0
-27 1 0
-27 3 0
27 -1 -3 0
-28 27 0
-28 6 0
28 -27 -6 0
29 8 0
-29 -8 0
-30 28 0
-30 29 0
30 -28 -29 0
-31 30 0
-31 10 0
31 -30 -10 0
-32 31 0
-32 12 0
32 -31 -12 0
-33 32 0
-33 14 0
33 -32 -14 0
-34 33 0
-34 16 0
34 -33 -16 0
35 -26 0
35 -34 0
-35 26 34 0
-36 7 0
-36 29 0
36 -7 -29 0
-37 36 0
-37 10 0
37 -36 -10 0
-38 37 0
-38 12 0
38 -37 -12 0
-39 38 0
-39 14 0
39 -38 -14 0
-40 39 0
-40 16 0
40 -39 -16 0
41 -35 0
41 -40 0
-41 35 40 0
-42 20 0
-42 29 0
42 -20 -29 0
-43 42 0
-43 10 0
43 -42 -10 0
-44 43 0
-44 12 0
44 -43 -12 0
-45 44 0
-45 14 0
45 -44 -14 0
-46 45 0
-46 16 0
46 -45 -16 0
47 -41 0
47 -46 0
-47 41 46 0
-48 19 0
-48 5 0
48 -19 -5 0
-49 48 0
-49 8 0
49 -48 -8 0
50 10 0
-50 -10 0
-51 49 0
-51 50 0
51 -49 -50 0
-52 51 0
-52 12 0
52 -51 -12 0
-53 52 0
-53 14 0
53 -52 -14 0
-54 53 0
-54 16 0
54 -53 -16 0
55 -47 0
55 -54 0
-55 47 54 0
-56 9 0
-56 50 0
56 -9 -50 0
-57 56 0
-57 12 0
57 -56 -12 0
-58 57 0
-58 14 0
58 -57 -14 0
-59 58 0
-59 16 0
59 -58 -16 0
60 -55 0
60 -59 0
-60 55 59 0
-61 21 0
-61 50 0
61 -21 -50 0
-62 61 0
-62 12 0
62 -61 -12 0
-63 62 0
-63 14 0
63 -62 -14 0
-64 63 0
-64 16 0
64 -63 -16 0
65 -60 0
65 -64 0
-65 60 64 0
-66 4 0
-66 5 0
66 -4 -5 0
-67 66 0
-67 29 0
67 -66 -29 0
-68 67 0
-68 50 0
68 -67 -50 0
-69 68 0
-69 12 0
69 -68 -12 0
-70 69 0
-70 14 0
70 -69 -14 0
-71 70 0
-71 16 0
71 -70 -16 0
72 -65 0
72 -71 0
-72 65 71 0
-73 2 0
-73 18 0
73 -2 -18 0
-74 73 0
-74 6 0
74 -73 -6 0
-75 74 0
-75 29 0
75 -74 -29 0
-76 75 0
-76 50 0
76 -75 -50 0
-77 76 0
-77 12 0
77 -76 -12 0
-78 77 0
-78 14 0
78 -77 -14 0
-79 78 0
-79 16 0
79 -78 -16 0
80 -72 0
80 -79 0
-80 72 79 0
-81 73 0
-81 5 0
81 -73 -5 0
-82 81 0
-82 8 0
82 -81 -8 0
-83 82 0
-83 10 0
83 -82 -10 0
84 12 0
-84 -12 0
-85 83 0
-85 84 0
85 -83 -84 0
-86 85 0
-86 14 0
86 -85 -14 0
-87 86 0
-87 16 0
87 -86 -16 0
88 -80 0
88 -87 0
-88 80 87 0
-89 22 0
-89 84 0
89 -22 -84 0
-90 89 0
-90 14 0
90 -89 -14 0
-91 90 0
-91 16 0
91 -90 -16 0
92 -88 0
92 -91 0
-92 88 91 0
-93 74 0
-93 8 0
93 -74 -8 0
-94 93 0
-94 10 0
94 -93 -10 0
-95 94 0
-95 84 0
95 -94 -84 0
-96 95 0
-96 14 0
96 -95 -14 0
-97 96 0
-97 16 0
97 -96 -16 0
98 -92 0
98 -97 0
-98 92 97 0
-99 48 0
-99 29 0
99 -48 -29 0
-100 99 0
-100 10 0
100 -99 -10 0
-101 100 0
-101 84 0
101 -100 -84 0
-102 101 0
-102 14 0
102 -101 -14 0
-103 102 0
-103 16 0
103 -102 -16 0
104 -98 0
104 -103 0
-104 98 103 0
-105 81 0
-105 29 0
105 -81 -29 0
-106 105 0
-106 10 0
106 -105 -10 0
-107 106 0
-107 84 0
107 -106 -84 0
-108 107 0
-108 14 0
108 -107 -14 0
-109 108 0
-109 16 0
109 -108 -16 0
110 -104 0
110 -109 0
-110 104 109 0
-111 37 0
-111 84 0
111 -37 -84 0
-112 111 0
-112 14 0
112 -111 -14 0
-113 112 0
-113 16 0
113 -112 -16 0
114 -110 0
114 -113 0
-114 110 113 0
-115 75 0
-115 10 0
115 -75 -10 0
-116 115 0
-116 84 0
116 -115 -84 0
-117 116 0
-117 14 0
117 -116 -14 0
-118 117 0
-118 16 0
118 -117 -16 0
119 -114 0
119 -118 0
-119 114 118 0
-120 27 0
-120 5 0
120 -27 -5 0
-121 120 0
-121 8 0
121 -120 -8 0
-122 121 0
-122 50 0
122 -121 -50 0
-123 122 0
-123 84 0
123 -122 -84 0
-124 123 0
-124 14 0
124 -123 -14 0
-125 124 0
-125 16 0
125 -124 -16 0
126 -119 0
126 -125 0
-126 119 125 0
-127 66 0
-127 8 0
127 -66 -8 0
-128 127 0
-128 50 0
128 -127 -50 0
-129 128 0
-129 84 0
129 -128 -84 0
-130 129 0
-130 14 0
130 -129 -14 0
-131 130 0
-131 16 0
131 -130 -16 0
132 -126 0
132 -131 0
-132 126 131 0
-133 51 0
-133 84 0
133 -51 -84 0
-134 133 0
-134 14 0
134 -133 -14 0
-135 134 0
-135 16 0
135 -134 -16 0
136 -132 0
136 -135 0
-136 132 135 0
-137 61 0
-137 84 0
137 -61 -84 0
-138 137 0
-138 14 0
138 -137 -14 0
-139 138 0
-139 16 0
139 -138 -16 0
140 -136 0
140 -139 0
-140 136 139 0
-141 93 0
-141 50 0
141 -93 -50 0
-142 141 0
-142 84 0
142 -141 -84 0
-143 142 0
-143 14 0
143 -142 -14 0
-144 143 0
-144 16 0
144 -143 -16 0
145 -140 0
145 -144 0
-145 140 144 0
-146 120 0
-146 29 0
146 -120 -29 0
-147 146 0
-147 50 0
147 -146 -50 0
-148 147 0
-148 84 0
148 -147 -84 0
-149 148 0
-149 14 0
149 -148 -14 0
-150 149 0
-150 16 0
150 -149 -16 0
151 -145 0
151 -150 0
-151 145 150 0
-152 68 0
-152 84 0
152 -68 -84 0
-153 152 0
-153 14 0
153 -152 -14 0
-154 153 0
-154 16 0
154 -153 -16 0
155 -151 0
155 -154 0
-155 151 154 0
-156 99 0
-156 50 0
156 -99 -50 0
-157 156 0
-157 84 0
157 -156 -84 0
-158 157 0
-158 14 0
158 -157 -14 0
-159 158 0
-159 16 0
159 -158 -16 0
160 -155 0
160 -159 0
-160 155 159 0
-161 105 0
-161 50 0
161 -105 -50 0
-162 161 0
-162 84 0
162 -161 -84 0
-163 162 0
-163 14 0
163 -162 -14 0
-164 163 0
-164 16 0
164 -163 -16 0
165 -160 0
165 -164 0
-165 160 164 0
-166 30 0
-166 50 0
166 -30 -50 0
-167 166 0
-167 84 0
167 -166 -84 0
-168 167 0
-168 14 0
168 -167 -14 0
-169 168 0
-169 16 0
169 -168 -16 0
170 -165 0
170 -169 0
-170 165 169 0
-171 83 0
-171 12 0
171 -83 -12 0
172 14 0
-172 -14 0
-173 171 0
-173 172 0
173 -171 -172 0
-174 173 0
-174 16 0
174 -173 -16 0
175 -170 0
175 -174 0
-175 170 174 0
-176 13 0
-176 172 0
176 -13 -172 0
-177 176 0
-177 16 0
177 -176 -16 0
178 -175 0
178 -177 0
-178 175 177 0
-179 94 0
-179 12 0
179 -94 -12 0
-180 179 0
-180 172 0
180 -179 -172 0
-181 180 0
-181 16 0
181 -180 -16 0
182 -178 0
182 -181 0
-182 178 181 0
-183 100 0
-183 12 0
183 -100 -12 0
-184 183 0
-184 172 0
184 -183 -172 0
-185 184 0
-185 16 0
185 -184 -16 0
186 -182 0
186 -185 0
-186 182 185 0
-187 106 0
-187 12 0
187 -106 -12 0
-188 187 0
-188 172 0
188 -187 -172 0
-189 188 0
-189 16 0
189 -188 -16 0
190 -186 0
190 -189 0
-190 186 189 0
-191 32 0
-191 172 0
191 -32 -172 0
-192 191 0
-192 16 0
192 -191 -16 0
193 -190 0
193 -192 0
-193 190 192 0
-194 38 0
-194 172 0
194 -38 -172 0
-195 194 0
-195 16 0
195 -194 -16 0
196 -193 0
196 -195 0
-196 193 195 0
-197 44 0
-197 172 0
197 -44 -172 0
-198 197 0
-198 16 0
198 -197 -16 0
199 -196 0
199 -198 0
-199 196 198 0
-200 115 0
-200 12 0
200 -115 -12 0
-201 200 0
-201 172 0
201 -200 -172 0
-202 201 0
-202 16 0
202 -201 -16 0
203 -199 0
203 -202 0
-203 199 202 0
-204 122 0
-204 12 0
204 -122 -12 0
-205 204 0
-205 172 0
205 -204 -172 0
-206 205 0
-206 16 0
206 -205 -16 0
207 -203 0
207 -206 0
-207 203 206 0
-208 128 0
-208 12 0
208 -128 -12 0
-209 208 0
-209 172 0
209 -208 -172 0
-210 209 0
-210 16 0
210 -209 -16 0
211 -207 0
211 -210 0
-211 207 210 0
-212 52 0
-212 172 0
212 -52 -172 0
-213 212 0
-213 16 0
213 -212 -16 0
214 -211 0
214 -213 0
-214 211 213 0
-215 57 0
-215 172 0
215 -57 -172 0
-216 215 0
-216 16 0
216 -215 -16 0
217 -214 0
217 -216 0
-217 214 216 0
-218 62 0
-218 172 0
218 -62 -172 0
-219 218 0
-219 16 0
219 -218 -16 0
220 -217 0
220 -219 0
-220 217 219 0
-221 147 0
-221 12 0
221 -147 -12 0
-222 221 0
-222 172 0
222 -221 -172 0
-223 222 0
-223 16 0
223 -222 -16 0
224 -220 0
224 -223 0
-224 220 223 0
-225 69 0
-225 172 0
225 -69 -172 0
-226 225 0
-226 16 0
226 -225 -16 0
227 -224 0
227 -226 0
-227 224 226 0
-228 156 0
-228 12 0
228 -156 -12 0
-229 228 0
-229 172 0
229 -228 -172 0
-230 229 0
-230 16 0
230 -229 -16 0
231 -227 0
231 -230 0
-231 227 230 0
-232 161 0
-232 12 0
232 -161 -12 0
-233 232 0
-233 172 0
233 -232 -172 0
-234 233 0
-234 16 0
234 -233 -16 0
235 -231 0
235 -234 0
-235 231 234 0
-236 36 0
-236 50 0
236 -36 -50 0
-237 236 0
-237 12 0
237 -236 -12 0
-238 237 0
-238 172 0
238 -237 -172 0
-239 238 0
-239 16 0
239 -238 -16 0
240 -235 0
240 -239 0
-240 235 239 0
-241 121 0
-241 10 0
241 -121 -10 0
-242 241 0
-242 84 0
242 -241 -84 0
-243 242 0
-243 172 0
243 -242 -172 0
-244 243 0
-244 16 0
244 -243 -16 0
245 -240 0
245 -244 0
-245 240 244 0
-246 49 0
-246 10 0
246 -49 -10 0
-247 246 0
-247 84 0
247 -246 -84 0
-248 247 0
-248 172 0
248 -247 -172 0
-249 248 0
-249 16 0
249 -248 -16 0
250 -245 0
250 -249 0
-250 245 249 0
-251 11 0
-251 84 0
251 -11 -84 0
-252 251 0
-252 172 0
252 -251 -172 0
-253 252 0
-253 16 0
253 -252 -16 0
254 -250 0
254 -253 0
-254 250 253 0
-255 146 0
-255 10 0
255 -146 -10 0
-256 255 0
-256 84 0
256 -255 -84 0
-257 256 0
-257 172 0
257 -256 -172 0
-258 257 0
-258 16 0
258 -257 -16 0
259 -254 0
259 -258 0
-259 254 258 0
-260 107 0
-260 172 0
260 -107 -172 0
-261 260 0
-261 16 0
261 -260 -16 0
262 -259 0
262 -261 0
-262 259 261 0
-263 111 0
-263 172 0
263 -111 -172 0
-264 263 0
-264 16 0
264 -263 -16 0
265 -262 0
265 -264 0
-265 262 264 0
-266 43 0
-266 84 0
266 -43 -84 0
-267 266 0
-267 172 0
267 -266 -172 0
-268 267 0
-268 16 0
268 -267 -16 0
269 -265 0
269 -268 0
-269 265 268 0
-270 116 0
-270 172 0
270 -116 -172 0
-271 270 0
-271 16 0
271 -270 -16 0
272 -269 0
272 -271 0
-272 269 271 0
-273 123 0
-273 172 0
273 -123 -172 0
-274 273 0
-274 16 0
274 -273 -16 0
275 -272 0
275 -274 0
-275 272 274 0
-276 129 0
-276 172 0
276 -129 -172 0
-277 276 0
-277 16 0
277 -276 -16 0
278 -275 0
278 -277 0
-278 275 277 0
-279 133 0
-279 172 0
279 -133 -172 0
-280 279 0
-280 16 0
280 -279 -16 0
281 -278 0
281 -280 0
-281 278 280 0
-282 137 0
-282 172 0
282 -137 -172 0
-283 282 0
-283 16 0
283 -282 -16 0
284 -281 0
284 -283 0
-284 281 283 0
-285 142 0
-285 172 0
285 -142 -172 0
-286 285 0
-286 16 0
286 -285 -16 0
287 -284 0
287 -286 0
-287 284 286 0
-288 42 0
-288 50 0
288 -42 -50 0
-289 288 0
-289 84 0
289 -288 -84 0
-290 289 0
-290 172 0
290 -289 -172 0
-291 290 0
-291 16 0
291 -290 -16 0
292 -287 0
292 -291 0
-292 287 291 0
-293 171 0
-293 14 0
293 -171 -14 0
294 16 0
-294 -16 0
-295 293 0
-295 294 0
295 -293 -294 0
296 -292 0
296 -295 0
-296 292 295 0
-297 15 0
-297 294 0
297 -15 -294 0
298 -296 0
298 -297 0
-298 296 297 0
-299 24 0
-299 294 0
299 -24 -294 0
300 -298 0
300 -299 0
-300 298 299 0
-301 255 0
-301 12 0
301 -255 -12 0
-302 301 0
-302 14 0
302 -301 -14 0
-303 302 0
-303 294 0
303 -302 -294 0
304 -300 0
304 -303 0
-304 300 303 0
-305 183 0
-305 14 0
305 -183 -14 0
-306 305 0
-306 294 0
306 -305 -294 0
307 -304 0
307 -306 0
-307 304 306 0
-308 187 0
-308 14 0
308 -187 -14 0
-309 308 0
-309 294 0
309 -308 -294 0
310 -307 0
310 -309 0
-310 307 309 0
-311 33 0
-311 294 0
311 -33 -294 0
312 -310 0
312 -311 0
-312 310 311 0
-313 39 0
-313 294 0
313 -39 -294 0
314 -312 0
314 -313 0
-314 312 313 0
-315 200 0
-315 14 0
315 -200 -14 0
-316 315 0
-316 294 0
316 -315 -294 0
317 -314 0
317 -316 0
-317 314 316 0
-318 204 0
-318 14 0
318 -204 -14 0
-319 318 0
-319 294 0
319 -318 -294 0
320 -317 0
320 -319 0
-320 317 319 0
-321 82 0
-321 50 0
321 -82 -50 0
-322 321 0
-322 12 0
322 -321 -12 0
-323 322 0
-323 14 0
323 -322 -14 0
-324 323 0
-324 294 0
324 -323 -294 0
325 -320 0
325 -324 0
-325 320 324 0
-326 28 0
-326 8 0
326 -28 -8 0
-327 326 0
-327 50 0
327 -326 -50 0
-328 327 0
-328 12 0
328 -327 -12 0
-329 328 0
-329 14 0
329 -328 -14 0
-330 329 0
-330 294 0
330 -329 -294 0
331 -325 0
331 -330 0
-331 325 330 0
-332 63 0
-332 294 0
332 -63 -294 0
333 -331 0
333 -332 0
-333 331 332 0
-334 141 0
-334 12 0
334 -141 -12 0
-335 334 0
-335 14 0
335 -334 -14 0
-336 335 0
-336 294 0
336 -335 -294 0
337 -333 0
337 -336 0
-337 333 336 0
-338 221 0
-338 14 0
338 -221 -14 0
-339 338 0
-339 294 0
339 -338 -294 0
340 -337 0
340 -339 0
-340 337 339 0
-341 70 0
-341 294 0
341 -70 -294 0
342 -340 0
342 -341 0
-342 340 341 0
-343 288 0
-343 12 0
343 -288 -12 0
-344 343 0
-344 14 0
344 -343 -14 0
-345 344 0
-345 294 0
345 -344 -294 0
346 -342 0
346 -345 0
-346 342 345 0
-347 242 0
-347 14 0
347 -242 -14 0
-348 347 0
-348 294 0
348 -347 -294 0
349 -346 0
349 -348 0
-349 346 348 0
-350 127 0
-350 10 0
350 -127 -10 0
-351 350 0
-351 84 0
351 -350 -84 0
-352 351 0
-352 14 0
352 -351 -14 0
-353 352 0
-353 294 0
353 -352 -294 0
354 -349 0
354 -353 0
-354 349 353 0
-355 86 0
-355 294 0
355 -86 -294 0
356 -354 0
356 -355 0
-356 354 355 0
-357 251 0
-357 14 0
357 -251 -14 0
-358 357 0
-358 294 0
358 -357 -294 0
359 -356 0
359 -358 0
-359 356 358 0
-360 96 0
-360 294 0
360 -96 -294 0
361 -359 0
361 -360 0
-361 359 360 0
-362 67 0
-362 10 0
362 -67 -10 0
-363 362 0
-363 84 0
363 -362 -84 0
-364 363 0
-364 14 0
364 -363 -14 0
-365 364 0
-365 294 0
365 -364 -294 0
366 -361 0
366 -365 0
-366 361 365 0
-367 102 0
-367 294 0
367 -102 -294 0
368 -366 0
368 -367 0
-368 366 367 0
-369 112 0
-369 294 0
369 -112 -294 0
370 -368 0
370 -369 0
-370 368 369 0
-371 266 0
-371 14 0
371 -266 -14 0
-372 371 0
-372 294 0
372 -371 -294 0
373 -370 0
373 -372 0
-373 370 372 0
-374 117 0
-374 294 0
374 -117 -294 0
375 -373 0
375 -374 0
-375 373 374 0
-376 124 0
-376 294 0
376 -124 -294 0
377 -375 0
377 -376 0
-377 375 376 0
-378 134 0
-378 294 0
378 -134 -294 0
379 -377 0
379 -378 0
-379 377 378 0
-380 321 0
-380 84 0
380 -321 -84 0
-381 380 0
-381 14 0
381 -380 -14 0
-382 381 0
-382 294 0
382 -381 -294 0
383 -379 0
383 -382 0
-383 379 382 0
-384 56 0
-384 84 0
384 -56 -84 0
-385 384 0
-385 14 0
385 -384 -14 0
-386 385 0
-386 294 0
386 -385 -294 0
387 -383 0
387 -386 0
-387 383 386 0
-388 138 0
-388 294 0
388 -138 -294 0
389 -387 0
389 -388 0
-389 387 388 0
-390 158 0
-390 294 0
390 -158 -294 0
391 -389 0
391 -390 0
-391 389 390 0
-392 168 0
-392 294 0
392 -168 -294 0
393 -391 0
393 -392 0
-393 391 392 0
-394 241 0
-394 12 0
394 -241 -12 0
-395 394 0
-395 172 0
395 -394 -172 0
-396 395 0
-396 294 0
396 -395 -294 0
397 -393 0
397 -396 0
-397 393 396 0
-398 246 0
-398 12 0
398 -246 -12 0
-399 398 0
-399 172 0
399 -398 -172 0
-400 399 0
-400 294 0
400 -399 -294 0
401 -397 0
401 -400 0
-401 397 400 0
-402 173 0
-402 294 0
402 -173 -294 0
403 -401 0
403 -402 0
-403 401 402 0
-404 23 0
-404 172 0
404 -23 -172 0
-405 404 0
-405 294 0
405 -404 -294 0
406 -403 0
406 -405 0
-406 403 405 0
-407 301 0
-407 172 0
407 -301 -172 0
-408 407 0
-408 294 0
408 -407 -294 0
409 -406 0
409 -408 0
-409 406 408 0
-410 362 0
-410 12 0
410 -362 -12 0
-411 410 0
-411 172 0
411 -410 -172 0
-412 411 0
-412 294 0
412 -411 -294 0
413 -409 0
413 -412 0
-413 409 412 0
-414 212 0
-414 294 0
414 -212 -294 0
415 -413 0
415 -414 0
-415 413 414 0
-416 322 0
-416 172 0
416 -322 -172 0
-417 416 0
-417 294 0
417 -416 -294 0
418 -415 0
418 -417 0
-418 415 417 0
-419 218 0
-419 294 0
419 -218 -294 0
420 -418 0
420 -419 0
-420 418 419 0
-421 225 0
-421 294 0
421 -225 -294 0
422 -420 0
422 -421 0
-422 420 421 0
-423 229 0
-423 294 0
423 -229 -294 0
424 -422 0
424 -423 0
-424 422 423 0
-425 166 0
-425 12 0
425 -166 -12 0
-426 425 0
-426 172 0
426 -425 -172 0
-427 426 0
-427 294 0
427 -426 -294 0
428 -424 0
428 -427 0
-428 424 427 0
-429 238 0
-429 294 0
429 -238 -294 0
430 -428 0
430 -429 0
-430 428 429 0
-431 77 0
-431 172 0
431 -77 -172 0
-432 431 0
-432 294 0
432 -431 -294 0
433 -430 0
433 -432 0
-433 430 432 0
-434 351 0
-434 172 0
434 -351 -172 0
-435 434 0
-435 294 0
435 -434 -294 0
436 -433 0
436 -435 0
-436 433 435 0
-437 326 0
-437 10 0
437 -326 -10 0
-438 437 0
-438 84 0
438 -437 -84 0
-439 438 0
-439 172 0
439 -438 -172 0
-440 439 0
-440 294 0
440 -439 -294 0
441 -436 0
441 -440 0
-441 436 440 0
-442 252 0
-442 294 0
442 -252 -294 0
443 -441 0
443 -442 0
-443 441 442 0
-444 89 0
-444 172 0
444 -89 -172 0
-445 444 0
-445 294 0
445 -444 -294 0
446 -443 0
446 -445 0
-446 443 445 0
-447 95 0
-447 172 0
447 -95 -172 0
-448 447 0
-448 294 0
448 -447 -294 0
449 -446 0
449 -448 0
-449 446 448 0
-450 257 0
-450 294 0
450 -257 -294 0
451 -449 0
451 -450 0
-451 449 450 0
-452 101 0
-452 172 0
452 -101 -172 0
-453 452 0
-453 294 0
453 -452 -294 0
454 -451 0
454 -453 0
-454 451 453 0
-455 260 0
-455 294 0
455 -260 -294 0
456 -454 0
456 -455 0
-456 454 455 0
-457 31 0
-457 84 0
457 -31 -84 0
-458 457 0
-458 172 0
458 -457 -172 0
-459 458 0
-459 294 0
459 -458 -294 0
460 -456 0
460 -459 0
-460 456 459 0
-461 380 0
-461 172 0
461 -380 -172 0
-462 461 0
-462 294 0
462 -461 -294 0
463 -460 0
463 -462 0
-463 460 462 0
-464 327 0
-464 84 0
464 -327 -84 0
-465 464 0
-465 172 0
465 -464 -172 0
-466 465 0
-466 294 0
466 -465 -294 0
467 -463 0
467 -466 0
-467 463 466 0
-468 384 0
-468 172 0
468 -384 -172 0
-469 468 0
-469 294 0
469 -468 -294 0
470 -467 0
470 -469 0
-470 467 469 0
-471 285 0
-471 294 0
471 -285 -294 0
472 -470 0
472 -471 0
-472 470 471 0
-473 148 0
-473 172 0
473 -148 -172 0
-474 473 0
-474 294 0
474 -473 -294 0
475 -472 0
475 -474 0
-475 472 474 0
-476 167 0
-476 172 0
476 -167 -172 0
-477 476 0
-477 294 0
477 -476 -294 0
478 -475 0
478 -477 0
-478 475 477 0
479 -10 12 0
479 10 -12 0
-479 -10 -12 0
-479 10 12 0
480 -479 14 0
480 479 -14 0
-480 -479 -14 0
-480 479 14 0
481 -480 16 0
481 480 -16 0
-481 -480 -16 0
-481 480 16 0
482 -478 -481 0
482 478 481 0
-482 -478 481 0
-482 478 -481 0
482 0
